c turning on binary mode checking
c parsing input formula with 259840 variables and 1039934 clauses
c finished parsing, read 26062258 bytes from proof file
c detected empty clause; start verification via backward checking
c 32188 of 1039934 clauses in core                            
c 46673 of 641252 lemmas in core using 446418 resolution steps
c 0 RAT lemmas in core; 5723 redundant literals in core lemmas
s VERIFIED
c verification time: 4.176 seconds
